
Gurobi 8.1.1 (win64) logging started 12/17/19 19:17:07

Changed value of parameter LogFile to ./data/fixed/gurobi.log
   Prev: gurobi.log  Default: 
Changed value of parameter TimeLimit to 30.0
   Prev: 1e+100  Min: 0.0  Max: 1e+100  Default: 1e+100
Optimize a model with 3485 rows, 14253 columns and 410884 nonzeros
Variable types: 483 continuous, 13770 integer (13770 binary)
Coefficient statistics:
  Matrix range     [1e+00, 5e+00]
  Objective range  [5e+01, 1e+02]
  Bounds range     [1e+00, 1e+00]
  RHS range        [1e+00, 5e+01]
Found heuristic solution: objective 536850.00000
Presolve removed 1145 rows and 4926 columns
Presolve time: 0.37s
Presolved: 2340 rows, 9327 columns, 108055 nonzeros
Variable types: 388 continuous, 8939 integer (8817 binary)

Root relaxation: objective 6.331667e+04, 6168 iterations, 0.17 seconds

    Nodes    |    Current Node    |     Objective Bounds      |     Work
 Expl Unexpl |  Obj  Depth IntInf | Incumbent    BestBd   Gap | It/Node Time

     0     0 63316.6667    0  311 536850.000 63316.6667  88.2%     -    0s
H    0     0                    73350.000000 63316.6667  13.7%     -    0s
H    0     0                    72700.000000 63316.6667  12.9%     -    0s
H    0     0                    72050.000000 63316.6667  12.1%     -    0s
H    0     0                    70550.000000 63316.6667  10.3%     -    0s
     0     0 63568.3333    0 1063 70550.0000 63568.3333  9.90%     -    1s
H    0     0                    70000.000000 63568.3333  9.19%     -    1s
H    0     0                    69650.000000 63568.3333  8.73%     -    1s
     0     0 63680.2778    0  832 69650.0000 63680.2778  8.57%     -    1s
     0     0 63696.9444    0  708 69650.0000 63696.9444  8.55%     -    1s
     0     0 63713.6111    0  711 69650.0000 63713.6111  8.52%     -    1s
     0     0 63713.6111    0  698 69650.0000 63713.6111  8.52%     -    1s
H    0     0                    69450.000000 63713.6111  8.26%     -    1s
H    0     0                    69350.000000 63713.6111  8.13%     -    1s
H    0     0                    69100.000000 63713.6111  7.80%     -    1s
H    0     0                    69050.000000 63713.6111  7.73%     -    1s
     0     0 63758.9444    0 1138 69050.0000 63758.9444  7.66%     -    1s
H    0     0                    68850.000000 63758.9444  7.39%     -    1s
H    0     0                    68500.000000 63758.9444  6.92%     -    1s
     0     0 63808.3988    0 1070 68500.0000 63808.3988  6.85%     -    1s
H    0     0                    68100.000000 63808.3988  6.30%     -    1s
     0     0 63840.5417    0 1033 68100.0000 63840.5417  6.25%     -    1s
H    0     0                    67900.000000 63840.5417  5.98%     -    2s
     0     0 63854.1906    0 1035 67900.0000 63854.1906  5.96%     -    2s
     0     0 63858.7361    0  982 67900.0000 63858.7361  5.95%     -    2s
H    0     0                    67800.000000 63858.7361  5.81%     -    2s
     0     0 63858.7361    0  884 67800.0000 63858.7361  5.81%     -    2s
H    0     0                    67500.000000 63858.7361  5.39%     -    2s
     0     0 63960.3083    0 1378 67500.0000 63960.3083  5.24%     -    2s
H    0     0                    67250.000000 63960.3083  4.89%     -    3s
H    0     0                    67150.000000 63960.3083  4.75%     -    3s
     0     0 64088.0696    0 1368 67150.0000 64088.0696  4.56%     -    3s
H    0     0                    67100.000000 64088.0696  4.49%     -    3s
     0     0 64139.4282    0 1369 67100.0000 64139.4282  4.41%     -    3s
     0     0 64163.0202    0 1301 67100.0000 64163.0202  4.38%     -    3s
     0     0 64164.7786    0 1258 67100.0000 64164.7786  4.37%     -    3s
H    0     0                    67050.000000 64164.7786  4.30%     -    3s
     0     0 64173.9372    0 1234 67050.0000 64173.9372  4.29%     -    3s
H    0     0                    67000.000000 64173.9372  4.22%     -    3s
     0     0 64173.9758    0 1193 67000.0000 64173.9758  4.22%     -    3s
H    0     0                    66900.000000 64173.9758  4.07%     -    4s
     0     0 64311.0026    0 1413 66900.0000 64311.0026  3.87%     -    4s
     0     0 64412.8392    0 1456 66900.0000 64412.8392  3.72%     -    4s
     0     0 64458.9132    0 1556 66900.0000 64458.9132  3.65%     -    4s
     0     0 64500.0343    0 1547 66900.0000 64500.0343  3.59%     -    5s
     0     0 64505.4486    0 1514 66900.0000 64505.4486  3.58%     -    5s
     0     0 64505.7037    0 1535 66900.0000 64505.7037  3.58%     -    5s
H    0     0                    66850.000000 64505.7037  3.51%     -    5s
     0     0 64625.6310    0 1609 66850.0000 64625.6310  3.33%     -    5s
     0     0 64672.8284    0 1507 66850.0000 64672.8284  3.26%     -    6s
     0     0 64718.1535    0 1503 66850.0000 64718.1535  3.19%     -    6s
     0     0 64726.5675    0 1545 66850.0000 64726.5675  3.18%     -    6s
     0     0 64726.6277    0 1477 66850.0000 64726.6277  3.18%     -    6s
     0     0 64750.7917    0 1517 66850.0000 64750.7917  3.14%     -    7s
     0     0 64779.5327    0 1505 66850.0000 64779.5327  3.10%     -    7s
     0     0 64800.8710    0 1455 66850.0000 64800.8710  3.07%     -    7s
     0     0 64804.0476    0 1518 66850.0000 64804.0476  3.06%     -    7s
H    0     0                    66800.000000 64804.0476  2.99%     -    7s
     0     0 64816.0615    0 1548 66800.0000 64816.0615  2.97%     -    7s
     0     0 64817.3115    0 1539 66800.0000 64817.3115  2.97%     -    8s
     0     0 64821.7559    0 1544 66800.0000 64821.7559  2.96%     -    8s
     0     0 64821.7559    0 1526 66800.0000 64821.7559  2.96%     -    8s
     0     0 64828.8542    0 1452 66800.0000 64828.8542  2.95%     -    8s
     0     0 64836.6667    0 1427 66800.0000 64836.6667  2.94%     -    9s
     0     0 64843.6859    0 1518 66800.0000 64843.6859  2.93%     -    9s
     0     0 64849.3803    0 1531 66800.0000 64849.3803  2.92%     -    9s
     0     0 64862.7137    0 1613 66800.0000 64862.7137  2.90%     -   10s
     0     0 64864.7329    0 1527 66800.0000 64864.7329  2.90%     -   10s
     0     0 64868.5470    0 1582 66800.0000 64868.5470  2.89%     -   10s
     0     0 64868.5470    0 1507 66800.0000 64868.5470  2.89%     -   10s
     0     0 64900.2778    0 1565 66800.0000 64900.2778  2.84%     -   11s
     0     0 64900.7292    0 1596 66800.0000 64900.7292  2.84%     -   11s
     0     0 64916.8056    0 1516 66800.0000 64916.8056  2.82%     -   11s
     0     0 64929.2014    0 1583 66800.0000 64929.2014  2.80%     -   12s
     0     0 64935.8680    0 1605 66800.0000 64935.8680  2.79%     -   12s
     0     0 64937.7778    0 1653 66800.0000 64937.7778  2.79%     -   13s
     0     0 64956.8217    0 1583 66800.0000 64956.8217  2.76%     -   13s
     0     0 64965.3792    0 1569 66800.0000 64965.3792  2.75%     -   13s
     0     0 64965.6942    0 1510 66800.0000 64965.6942  2.75%     -   13s
     0     0 64970.5208    0 1551 66800.0000 64970.5208  2.74%     -   13s
     0     0 64982.3342    0 1582 66800.0000 64982.3342  2.72%     -   14s
     0     0 64984.3951    0 1594 66800.0000 64984.3951  2.72%     -   14s
     0     0 64985.9576    0 1610 66800.0000 64985.9576  2.72%     -   14s
     0     0 64990.9196    0 1614 66800.0000 64990.9196  2.71%     -   14s
     0     0 64997.8173    0 1556 66800.0000 64997.8173  2.70%     -   15s
     0     0 64999.3601    0 1552 66800.0000 64999.3601  2.70%     -   15s
     0     0 65001.2661    0 1614 66800.0000 65001.2661  2.69%     -   15s
     0     0 65001.5625    0 1574 66800.0000 65001.5625  2.69%     -   15s
     0     0 65028.2292    0 1532 66800.0000 65028.2292  2.65%     -   16s
     0     0 65041.1458    0 1601 66800.0000 65041.1458  2.63%     -   16s
     0     0 65041.1458    0 1614 66800.0000 65041.1458  2.63%     -   16s
     0     0 65067.8125    0 1584 66800.0000 65067.8125  2.59%     -   17s
     0     0 65067.8125    0 1531 66800.0000 65067.8125  2.59%     -   17s
     0     0 65067.8125    0 1589 66800.0000 65067.8125  2.59%     -   18s
     0     0 65067.8125    0 1273 66800.0000 65067.8125  2.59%     -   18s
     0     2 65067.8125    0 1198 66800.0000 65067.8125  2.59%     -   20s
    84    88 65525.7083   18 1247 66800.0000 65184.4792  2.42%   717   25s
   212   214 65634.1667   44 1156 66800.0000 65184.4792  2.42%   560   30s

Cutting planes:
  Gomory: 108
  Cover: 716
  Clique: 973
  MIR: 140
  StrongCG: 15
  GUB cover: 73
  Zero half: 57

Explored 215 nodes (197044 simplex iterations) in 30.01 seconds
Thread count was 8 (of 8 available processors)

Solution count 10: 66800 66850 66900 ... 67800

Time limit reached
Best objective 6.680000000000e+04, best bound 6.520000000000e+04, gap 2.3952%

Gurobi 8.1.1 (win64) logging started 12/17/19 23:36:07

Changed value of parameter LogFile to ./data/fixed/gurobi.log
   Prev: gurobi.log  Default: 
Changed value of parameter TimeLimit to 30.0
   Prev: 1e+100  Min: 0.0  Max: 1e+100  Default: 1e+100
Optimize a model with 3530 rows, 14253 columns and 412212 nonzeros
Variable types: 483 continuous, 13770 integer (13770 binary)
Coefficient statistics:
  Matrix range     [5e-01, 5e+00]
  Objective range  [5e+01, 1e+02]
  Bounds range     [1e+00, 1e+00]
  RHS range        [1e+00, 4e+01]
Found heuristic solution: objective 509500.00000
Presolve removed 1094 rows and 4737 columns
Presolve time: 0.65s
Presolved: 2436 rows, 9516 columns, 113308 nonzeros
Variable types: 388 continuous, 9128 integer (9006 binary)

Root relaxation: objective 6.361250e+04, 7074 iterations, 0.35 seconds

    Nodes    |    Current Node    |     Objective Bounds      |     Work
 Expl Unexpl |  Obj  Depth IntInf | Incumbent    BestBd   Gap | It/Node Time

     0     0 63612.5000    0  403 509500.000 63612.5000  87.5%     -    1s
H    0     0                    77450.000000 63612.5000  17.9%     -    1s
H    0     0                    73450.000000 63612.5000  13.4%     -    1s
H    0     0                    72950.000000 63612.5000  12.8%     -    1s
H    0     0                    72650.000000 63612.5000  12.4%     -    1s
H    0     0                    72550.000000 63612.5000  12.3%     -    1s
     0     0 63805.1389    0 1161 72550.0000 63805.1389  12.1%     -    2s
H    0     0                    72000.000000 63805.1389  11.4%     -    2s
     0     0 63867.7778    0  807 72000.0000 63867.7778  11.3%     -    2s
     0     0 63868.3333    0  745 72000.0000 63868.3333  11.3%     -    2s
     0     0 63868.3333    0  718 72000.0000 63868.3333  11.3%     -    2s
H    0     0                    71900.000000 63868.3333  11.2%     -    2s
H    0     0                    71800.000000 63868.3333  11.0%     -    2s
H    0     0                    71750.000000 63868.3333  11.0%     -    2s
H    0     0                    71450.000000 63868.3333  10.6%     -    2s
H    0     0                    71300.000000 63868.3333  10.4%     -    2s
     0     0 64030.3431    0 1237 71300.0000 64030.3431  10.2%     -    2s
H    0     0                    71200.000000 64030.3431  10.1%     -    3s
H    0     0                    71050.000000 64030.3431  9.88%     -    3s
H    0     0                    71000.000000 64030.3431  9.82%     -    3s
H    0     0                    70900.000000 64030.3431  9.69%     -    3s
     0     0 64142.8419    0 1202 70900.0000 64142.8419  9.53%     -    3s
H    0     0                    70500.000000 64142.8419  9.02%     -    3s
H    0     0                    70400.000000 64142.8419  8.89%     -    3s
     0     0 64167.8745    0 1112 70400.0000 64167.8745  8.85%     -    3s
H    0     0                    70150.000000 64167.8745  8.53%     -    3s
H    0     0                    70049.999979 64167.8745  8.40%     -    3s
     0     0 64170.0146    0 1052 70050.0000 64170.0146  8.39%     -    3s
H    0     0                    69950.000000 64170.0146  8.26%     -    4s
H    0     0                    69800.000000 64170.0146  8.07%     -    4s
     0     0 64203.3479    0  980 69800.0000 64203.3479  8.02%     -    4s
H    0     0                    69700.000000 64203.3479  7.89%     -    4s
     0     0 64203.3479    0  975 69700.0000 64203.3479  7.89%     -    4s
H    0     0                    69399.999994 64203.3479  7.49%     -    4s
H    0     0                    69000.000000 64203.3479  6.95%     -    4s
H    0     0                    68900.000000 64203.3479  6.82%     -    4s
H    0     0                    68700.000000 64203.3479  6.55%     -    4s
H    0     0                    68550.000000 64203.3479  6.34%     -    4s
H    0     0                    68400.000000 64203.3479  6.14%     -    4s
H    0     0                    68200.000000 64203.3479  5.86%     -    4s
     0     0 64445.8223    0 1487 68200.0000 64445.8223  5.50%     -    4s
H    0     0                    68050.000000 64445.8223  5.30%     -    5s
H    0     0                    67950.000000 64445.8223  5.16%     -    5s
H    0     0                    67700.000000 64445.8223  4.81%     -    5s
H    0     0                    67550.000000 64445.8223  4.60%     -    5s
H    0     0                    67400.000000 64445.8223  4.38%     -    5s
     0     0 64666.6559    0 1419 67400.0000 64666.6559  4.06%     -    5s
H    0     0                    67150.000000 64666.6559  3.70%     -    5s
     0     0 64721.2498    0 1446 67150.0000 64721.2498  3.62%     -    5s
H    0     0                    67100.000000 64721.2498  3.55%     -    6s
     0     0 64733.8483    0 1444 67100.0000 64733.8483  3.53%     -    6s
     0     0 64736.9460    0 1482 67100.0000 64736.9460  3.52%     -    6s
     0     0 64737.2647    0 1459 67100.0000 64737.2647  3.52%     -    6s
     0     0          -    0      67100.0000 64737.2647  3.52%     -    7s

Cutting planes:
  Gomory: 104
  Cover: 469
  Clique: 616
  MIR: 82
  StrongCG: 9
  GUB cover: 22
  Zero half: 42

Explored 1 nodes (26783 simplex iterations) in 7.15 seconds
Thread count was 8 (of 8 available processors)

Solution count 10: 67100 67150 67400 ... 68550

Solve interrupted
Best objective 6.710000000000e+04, best bound 6.475000000000e+04, gap 3.5022%

Gurobi 8.1.1 (win64) logging started 12/17/19 23:36:40

Changed value of parameter LogFile to ./data/fixed/gurobi.log
   Prev: gurobi.log  Default: 
Changed value of parameter TimeLimit to 30.0
   Prev: 1e+100  Min: 0.0  Max: 1e+100  Default: 1e+100
Optimize a model with 3530 rows, 14253 columns and 412212 nonzeros
Variable types: 483 continuous, 13770 integer (13770 binary)
Coefficient statistics:
  Matrix range     [5e-01, 5e+00]
  Objective range  [5e+01, 1e+02]
  Bounds range     [1e+00, 1e+00]
  RHS range        [1e+00, 4e+01]
Found heuristic solution: objective 509500.00000
Presolve removed 1094 rows and 4737 columns
Presolve time: 0.63s
Presolved: 2436 rows, 9516 columns, 113308 nonzeros
Variable types: 388 continuous, 9128 integer (9006 binary)

Root relaxation: objective 6.361250e+04, 7074 iterations, 0.32 seconds

    Nodes    |    Current Node    |     Objective Bounds      |     Work
 Expl Unexpl |  Obj  Depth IntInf | Incumbent    BestBd   Gap | It/Node Time

     0     0 63612.5000    0  403 509500.000 63612.5000  87.5%     -    1s
H    0     0                    77450.000000 63612.5000  17.9%     -    1s
H    0     0                    73450.000000 63612.5000  13.4%     -    1s
H    0     0                    72950.000000 63612.5000  12.8%     -    1s
H    0     0                    72650.000000 63612.5000  12.4%     -    1s
H    0     0                    72550.000000 63612.5000  12.3%     -    1s
     0     0 63805.1389    0 1161 72550.0000 63805.1389  12.1%     -    1s
H    0     0                    72000.000000 63805.1389  11.4%     -    2s
     0     0 63867.7778    0  807 72000.0000 63867.7778  11.3%     -    2s
     0     0 63868.3333    0  745 72000.0000 63868.3333  11.3%     -    2s
     0     0 63868.3333    0  718 72000.0000 63868.3333  11.3%     -    2s
H    0     0                    71900.000000 63868.3333  11.2%     -    2s
H    0     0                    71800.000000 63868.3333  11.0%     -    2s
H    0     0                    71750.000000 63868.3333  11.0%     -    2s
H    0     0                    71450.000000 63868.3333  10.6%     -    2s
H    0     0                    71300.000000 63868.3333  10.4%     -    2s
     0     0 64030.3431    0 1237 71300.0000 64030.3431  10.2%     -    2s
H    0     0                    71200.000000 64030.3431  10.1%     -    3s
H    0     0                    71050.000000 64030.3431  9.88%     -    3s
H    0     0                    71000.000000 64030.3431  9.82%     -    3s
H    0     0                    70900.000000 64030.3431  9.69%     -    3s
     0     0 64142.8419    0 1202 70900.0000 64142.8419  9.53%     -    3s
H    0     0                    70500.000000 64142.8419  9.02%     -    3s
H    0     0                    70400.000000 64142.8419  8.89%     -    3s
     0     0 64167.8745    0 1112 70400.0000 64167.8745  8.85%     -    3s
H    0     0                    70150.000000 64167.8745  8.53%     -    3s
H    0     0                    70049.999979 64167.8745  8.40%     -    3s
     0     0 64170.0146    0 1052 70050.0000 64170.0146  8.39%     -    3s
H    0     0                    69950.000000 64170.0146  8.26%     -    4s
H    0     0                    69800.000000 64170.0146  8.07%     -    4s
     0     0 64203.3479    0  980 69800.0000 64203.3479  8.02%     -    4s
H    0     0                    69700.000000 64203.3479  7.89%     -    4s
     0     0 64203.3479    0  975 69700.0000 64203.3479  7.89%     -    4s
H    0     0                    69399.999994 64203.3479  7.49%     -    4s
H    0     0                    69000.000000 64203.3479  6.95%     -    4s
H    0     0                    68900.000000 64203.3479  6.82%     -    4s
H    0     0                    68700.000000 64203.3479  6.55%     -    4s
H    0     0                    68550.000000 64203.3479  6.34%     -    4s
H    0     0                    68400.000000 64203.3479  6.14%     -    4s
H    0     0                    68200.000000 64203.3479  5.86%     -    4s
     0     0 64445.8223    0 1487 68200.0000 64445.8223  5.50%     -    4s
H    0     0                    68050.000000 64445.8223  5.30%     -    5s
H    0     0                    67950.000000 64445.8223  5.16%     -    5s
H    0     0                    67700.000000 64445.8223  4.81%     -    5s
H    0     0                    67550.000000 64445.8223  4.60%     -    5s
H    0     0                    67400.000000 64445.8223  4.38%     -    5s
     0     0 64666.6559    0 1419 67400.0000 64666.6559  4.06%     -    5s
H    0     0                    67150.000000 64666.6559  3.70%     -    5s
     0     0 64721.2498    0 1446 67150.0000 64721.2498  3.62%     -    5s
H    0     0                    67100.000000 64721.2498  3.55%     -    6s
     0     0 64733.8483    0 1444 67100.0000 64733.8483  3.53%     -    6s
     0     0 64736.9460    0 1482 67100.0000 64736.9460  3.52%     -    6s
     0     0 64737.2647    0 1459 67100.0000 64737.2647  3.52%     -    6s
     0     0 64850.6139    0 1598 67100.0000 64850.6139  3.35%     -    7s
     0     0 64950.8026    0 1580 67100.0000 64950.8026  3.20%     -    7s
     0     0 65001.6054    0 1635 67100.0000 65001.6054  3.13%     -    8s
H    0     0                    67050.000000 65001.6054  3.06%     -    8s
     0     0 65045.9709    0 1650 67050.0000 65045.9709  2.99%     -    8s
     0     0 65074.5075    0 1625 67050.0000 65074.5075  2.95%     -    8s
     0     0 65083.4950    0 1551 67050.0000 65083.4950  2.93%     -    9s
     0     0 65084.4242    0 1570 67050.0000 65084.4242  2.93%     -    9s
     0     0 65084.9245    0 1601 67050.0000 65084.9245  2.93%     -    9s
     0     0 65205.9275    0 1687 67050.0000 65205.9275  2.75%     -   10s
H    0     0                    67000.000000 65205.9275  2.68%     -   10s
     0     0 65313.5185    0 1601 67000.0000 65313.5185  2.52%     -   11s
     0     0 65335.5496    0 1640 67000.0000 65335.5496  2.48%     -   12s
     0     0 65373.9408    0 1551 67000.0000 65373.9408  2.43%     -   12s
     0     0 65374.8331    0 1575 67000.0000 65374.8331  2.43%     -   13s
H    0     0                    66949.999975 65374.8331  2.35%     -   14s
     0     0 65423.2540    0 1617 66950.0000 65423.2540  2.28%     -   14s
     0     0 65451.4633    0 1581 66950.0000 65451.4633  2.24%     -   14s
     0     0 65462.3188    0 1587 66950.0000 65462.3188  2.22%     -   15s
     0     0 65482.5873    0 1578 66950.0000 65482.5873  2.19%     -   15s
     0     0 65485.3631    0 1540 66950.0000 65485.3631  2.19%     -   15s
     0     0 65486.0372    0 1558 66950.0000 65486.0372  2.19%     -   16s
     0     0 65508.5106    0 1562 66950.0000 65508.5106  2.15%     -   16s
     0     0 65533.3436    0 1451 66950.0000 65533.3436  2.12%     -   17s
     0     0 65535.4693    0 1508 66950.0000 65535.4693  2.11%     -   17s
     0     0 65549.7931    0 1566 66950.0000 65549.7931  2.09%     -   17s
     0     0 65550.1496    0 1451 66950.0000 65550.1496  2.09%     -   18s
     0     0 65572.4800    0 1537 66950.0000 65572.4800  2.06%     -   19s
     0     0 65575.4414    0 1520 66950.0000 65575.4414  2.05%     -   19s
     0     0 65575.5506    0 1515 66950.0000 65575.5506  2.05%     -   20s
     0     0 65581.1086    0 1563 66950.0000 65581.1086  2.04%     -   20s
     0     0 65581.1086    0 1163 66950.0000 65581.1086  2.04%     -   21s
H    0     0                    66900.000000 65581.1086  1.97%     -   23s
     0     2 65581.1086    0 1100 66900.0000 65581.1086  1.97%     -   27s
    11    14 65656.8089    3 1429 66900.0000 65644.3899  1.88%  1730   30s

Cutting planes:
  Gomory: 101
  Cover: 649
  Clique: 921
  MIR: 138
  StrongCG: 5
  GUB cover: 53
  Zero half: 100

Explored 13 nodes (85540 simplex iterations) in 30.02 seconds
Thread count was 8 (of 8 available processors)

Solution count 10: 66900 66950 67000 ... 67950

Time limit reached
Best objective 1.442000000000e+05, best bound 1.441500000000e+05, gap 0.0347%
Changed value of parameter TimeLimit to 300.0
   Prev: 1e+100  Min: 0.0  Max: 1e+100  Default: 1e+100
Optimize a model with 3823 rows, 14252 columns and 312411 nonzeros
Variable types: 482 continuous, 13770 integer (13770 binary)
Coefficient statistics:
  Matrix range     [5e-01, 5e+00]
  Objective range  [5e+01, 1e+02]
  Bounds range     [1e+00, 1e+00]
  RHS range        [1e+00, 4e+01]
Found heuristic solution: objective 968100.00000
Presolve removed 1232 rows and 3403 columns
Presolve time: 0.56s
Presolved: 2591 rows, 10849 columns, 115229 nonzeros
Variable types: 388 continuous, 10461 integer (10339 binary)

Root relaxation: objective 1.410851e+05, 9641 iterations, 0.55 seconds

    Nodes    |    Current Node    |     Objective Bounds      |     Work
 Expl Unexpl |  Obj  Depth IntInf | Incumbent    BestBd   Gap | It/Node Time

     0     0 141085.093    0  521 968100.000 141085.093  85.4%     -    2s
H    0     0                    455450.00000 141085.093  69.0%     -    2s
H    0     0                    152350.00000 141085.093  7.39%     -    2s
H    0     0                    150350.00000 141085.093  6.16%     -    2s
     0     0 141186.857    0 1328 150350.000 141186.857  6.09%     -    2s
     0     0 141208.357    0 1105 150350.000 141208.357  6.08%     -    3s
     0     0 141208.655    0 1087 150350.000 141208.655  6.08%     -    3s
     0     0 141209.076    0 1008 150350.000 141209.076  6.08%     -    3s
     0     0 141209.152    0  988 150350.000 141209.152  6.08%     -    3s
     0     0 141209.152    0  977 150350.000 141209.152  6.08%     -    3s
     0     0 141251.710    0 1410 150350.000 141251.710  6.05%     -    4s
     0     0 141276.439    0 1443 150350.000 141276.439  6.03%     -    4s
     0     0 141280.265    0 1335 150350.000 141280.265  6.03%     -    4s
     0     0 141280.648    0 1306 150350.000 141280.648  6.03%     -    4s
     0     0 141280.857    0 1245 150350.000 141280.857  6.03%     -    5s
     0     0 141280.857    0 1209 150350.000 141280.857  6.03%     -    5s
     0     0 141347.643    0 1600 150350.000 141347.643  5.99%     -    6s
     0     0 141349.472    0 1674 150350.000 141349.472  5.99%     -    6s
     0     0 141355.292    0 1623 150350.000 141355.292  5.98%     -    6s
     0     0 141364.116    0 1507 150350.000 141364.116  5.98%     -    7s
     0     0 141373.491    0 1500 150350.000 141373.491  5.97%     -    7s
     0     0 141376.283    0 1457 150350.000 141376.283  5.97%     -    7s
     0     0 141376.283    0 1395 150350.000 141376.283  5.97%     -    7s
     0     0 141403.382    0 1798 150350.000 141403.382  5.95%     -    8s
     0     0 141477.881    0 1751 150350.000 141477.881  5.90%     -    9s
     0     0 141539.277    0 1872 150350.000 141539.277  5.86%     -    9s
     0     0 141595.111    0 1909 150350.000 141595.111  5.82%     -   10s
     0     0 141628.319    0 1952 150350.000 141628.319  5.80%     -   10s
     0     0 141659.120    0 1889 150350.000 141659.120  5.78%     -   11s
     0     0 141679.023    0 1853 150350.000 141679.023  5.77%     -   11s
     0     0 141684.788    0 1844 150350.000 141684.788  5.76%     -   12s
     0     0 141684.788    0 1823 150350.000 141684.788  5.76%     -   12s
     0     0 141744.724    0 1926 150350.000 141744.724  5.72%     -   14s
     0     0 141823.417    0 1980 150350.000 141823.417  5.67%     -   15s
     0     0 141877.896    0 2007 150350.000 141877.896  5.63%     -   16s
     0     0 141928.592    0 2016 150350.000 141928.592  5.60%     -   16s
     0     0 141988.820    0 2016 150350.000 141988.820  5.56%     -   17s
     0     0 142019.887    0 2038 150350.000 142019.887  5.54%     -   17s
     0     0 142033.323    0 1995 150350.000 142033.323  5.53%     -   18s
     0     0 142034.223    0 1955 150350.000 142034.223  5.53%     -   18s
     0     0 142039.277    0 1934 150350.000 142039.277  5.53%     -   19s
     0     0 142045.667    0 1943 150350.000 142045.667  5.52%     -   19s
     0     0 142045.667    0 1929 150350.000 142045.667  5.52%     -   20s
     0     0 142067.886    0 2043 150350.000 142067.886  5.51%     -   20s
H    0     0                    148250.00000 142067.886  4.17%     -   21s
     0     0 142155.087    0 2086 148250.000 142155.087  4.11%     -   21s
     0     0 142270.595    0 1984 148250.000 142270.595  4.03%     -   22s
     0     0 142327.262    0 2019 148250.000 142327.262  4.00%     -   23s
     0     0 142327.262    0 1989 148250.000 142327.262  4.00%     -   23s
     0     0 142347.540    0 1919 148250.000 142347.540  3.98%     -   24s
H    0     0                    147200.00000 142347.540  3.30%     -   24s
     0     0 142405.611    0 1891 147200.000 142405.611  3.26%     -   25s
     0     0 142446.802    0 1782 147200.000 142446.802  3.23%     -   26s
     0     0 142446.802    0 1816 147200.000 142446.802  3.23%     -   26s
     0     0 142501.389    0 1799 147200.000 142501.389  3.19%     -   27s
H    0     0                    145950.00000 142501.389  2.36%     -   27s
     0     0 142521.468    0 1802 145950.000 142521.468  2.35%     -   28s
     0     0 142522.659    0 1681 145950.000 142522.659  2.35%     -   28s
     0     0 142574.500    0 1661 145950.000 142574.500  2.31%     -   29s
H    0     0                    145100.00000 142574.500  1.74%     -   32s
     0     0 142594.500    0 1609 145100.000 142594.500  1.73%     -   32s
     0     0 142601.167    0 1672 145100.000 142601.167  1.72%     -   32s
     0     0 142601.167    0 1663 145100.000 142601.167  1.72%     -   33s
     0     0 142660.714    0 1683 145100.000 142660.714  1.68%     -   34s
     0     0 142679.762    0 1688 145100.000 142679.762  1.67%     -   34s
     0     0 142679.762    0 1647 145100.000 142679.762  1.67%     -   34s
     0     0 142755.357    0 1702 145100.000 142755.357  1.62%     -   35s
     0     0 142768.452    0 1664 145100.000 142768.452  1.61%     -   36s
     0     0 142768.452    0 1643 145100.000 142768.452  1.61%     -   36s
     0     0 142833.333    0 1667 145100.000 142833.333  1.56%     -   37s
     0     0 142838.095    0 1675 145100.000 142838.095  1.56%     -   37s
     0     0 142852.381    0 1643 145100.000 142852.381  1.55%     -   38s
     0     0 142852.381    0 1715 145100.000 142852.381  1.55%     -   38s
     0     0 142852.381    0 1753 145100.000 142852.381  1.55%     -   39s
     0     0 142854.881    0 1785 145100.000 142854.881  1.55%     -   40s
     0     0 142869.167    0 1778 145100.000 142869.167  1.54%     -   40s
     0     0 142869.167    0 1691 145100.000 142869.167  1.54%     -   40s
     0     0 142871.667    0 1675 145100.000 142871.667  1.54%     -   41s
     0     0 142871.667    0 1712 145100.000 142871.667  1.54%     -   41s
     0     0 142874.167    0 1731 145100.000 142874.167  1.53%     -   42s
     0     0 142874.167    0 1047 145100.000 142874.167  1.53%     -   44s
     0     2 142874.167    0 1026 145100.000 142874.167  1.53%     -   48s
     3     6 142874.167    2 1457 145100.000 142874.167  1.53%  3056   50s
    20    22 142890.833    8 1360 145100.000 142874.167  1.53%  1618   55s
H   27    27                    144800.00000 142874.167  1.33%  1548   57s
    42    42 142907.500   15 1459 144800.000 142874.167  1.33%  1465   62s
H   58    55                    144600.00000 142874.167  1.19%  1366   64s
    67    69 142993.958   24 1330 144600.000 142874.167  1.19%  1324   67s
    78    76 143018.958   28 1318 144600.000 142874.167  1.19%  1317   70s
H  108   108                    144500.00000 142874.167  1.13%  1123   73s
   114   115 143124.958   42 1321 144500.000 142874.167  1.13%  1111   76s
   151   150 143158.292   53 1336 144500.000 142874.167  1.13%  1028   81s
   198   201 143268.125   70 1194 144500.000 142874.167  1.13%   947   87s
H  215   201                    144450.00000 142874.167  1.09%   914   87s
H  242   232                    144400.00000 142874.167  1.06%   874   89s
   271   270 143440.038  101 1081 144400.000 142874.167  1.06%   822   92s
   312   312 143545.871  120 1056 144400.000 142874.167  1.06%   750   96s
   345   347 143674.876  133  951 144400.000 142874.167  1.06%   714  100s
H  368   358                    144300.00000 142874.167  0.99%   694  100s
H  397   377                    144200.00000 142874.167  0.92%   656  104s
   425   423 143932.517  158  757 144200.000 142874.167  0.92%   628  106s
   579   552 142907.500    5 1649 144200.000 142874.167  0.92%   513  112s
   609   573 142907.500    7 1523 144200.000 142874.167  0.92%   509  115s
   676   641 142907.500   11 1650 144200.000 142874.167  0.92%   481  133s
   678   643 142907.500   12 1580 144200.000 142874.167  0.92%   485  136s
   693   659 142915.833   16 1447 144200.000 142874.167  0.92%   502  144s
   704   665 142929.167   20 1467 144200.000 142874.167  0.92%   514  148s
   712   677 142965.000   24 1381 144200.000 142874.167  0.92%   519  153s
   728   691 142940.833   22 1047 144200.000 142874.167  0.92%   532  168s
   730   692 143278.125   68  467 144200.000 142874.167  0.92%   530  170s
   736   696 144061.250  175 1818 144200.000 142874.167  0.92%   526  175s
   745   702 143506.667  155 1092 144200.000 143128.889  0.74%   519  183s
   748   704 143433.125  129 1579 144200.000 143228.333  0.67%   517  185s
   751   706 143349.166   61  967 144200.000 143349.166  0.59%   515  191s
   761   713 143657.652  119  916 144200.000 143657.652  0.38%   508  198s
   765   716 143981.514  191 1293 144200.000 143801.739  0.28%   506  200s
   774   722 143930.747   12  971 144200.000 143930.747  0.19%   500  205s
   782   727 144007.791  176  917 144200.000 144007.791  0.13%   495  210s
   788   731 144072.784   31  413 144200.000 144072.784  0.09%   491  216s
   793   734 144080.904   93  367 144200.000 144080.904  0.08%   488  221s
   800   739 144095.696  149  735 144200.000 144095.696  0.07%   484  225s
   803   741 144106.609  137  806 144200.000 144106.609  0.06%   482  230s
   807   744 144112.755  186  424 144200.000 144112.755  0.06%   479  235s
   811   746 144116.419  135  439 144200.000 144116.419  0.06%   477  240s
   820   752 144119.718  204  683 144200.000 144119.718  0.06%   472  245s
   822   754 144119.718   30  453 144200.000 144119.718  0.06%   471  250s
   829   758 144122.575   55  500 144200.000 144122.575  0.05%   467  256s
   833   761 144123.155  103  440 144200.000 144123.155  0.05%   465  261s
   837   764 144130.689   58  361 144200.000 144130.689  0.05%   462  266s
   843   768 144134.325  100  900 144200.000 144134.325  0.05%   459  270s
   850   772 144136.592  175  502 144200.000 144136.592  0.04%   455  277s
   854   775 144142.147  172  485 144200.000 144142.147  0.04%   453  281s
   858   778 144147.570   17  422 144200.000 144147.570  0.04%   451  286s

Cutting planes:
  Gomory: 138
  Cover: 360
  Clique: 712
  MIR: 42
  StrongCG: 7
  Flow cover: 377
  GUB cover: 48
  Zero half: 105

Explored 862 nodes (991730 simplex iterations) in 287.77 seconds
Thread count was 4 (of 4 available processors)

Solution count 10: 144200 144300 144400 ... 147200

Optimal solution found (tolerance 1.00e-04)
Best objective 1.442000000000e+05, best bound 1.442000000000e+05, gap 0.0000%

Gurobi 8.1.1 (mac64, Python) logging started Thu Dec 19 15:51:34 2019

Academic license - for non-commercial use only
